c File:  zeroin.i.1.col
c
c SOURCE: Gary Lewandowski (gary@cs.wisc.edu)
c
c DESCRIPTION: Coloring problem generated from a register allocation
c              problem based on real code.
c
c graph #1 from register allocation file zeroin.i
p edge 211 4100
e 1 2
e 1 3
e 1 4
e 1 5
e 1 6
e 1 7
e 1 8
e 1 9
e 1 10
e 1 11
e 1 12
e 1 13
e 1 14
e 1 15
e 1 16
e 1 33
e 1 36
e 1 41
e 1 43
e 1 45
e 1 47
e 1 48
e 1 51
e 1 54
e 1 56
e 1 57
e 1 59
e 1 60
e 1 61
e 1 62
e 1 71
e 1 72
e 1 73
e 1 74
e 1 75
e 1 76
e 1 77
e 1 78
e 1 79
e 1 81
e 1 84
e 1 88
e 1 90
e 1 92
e 1 95
e 1 97
e 1 106
e 1 113
e 1 114
e 1 121
e 1 124
e 1 126
e 1 129
e 1 132
e 1 134
e 1 135
e 1 140
e 1 141
e 1 142
e 1 145
e 1 146
e 1 149
e 1 159
e 1 160
e 1 161
e 1 162
e 1 163
e 1 164
e 1 166
e 1 172
e 1 174
e 1 175
e 1 176
e 1 177
e 1 178
e 1 179
e 1 180
e 1 181
e 1 182
e 1 183
e 1 184
e 1 190
e 1 191
e 1 193
e 1 195
e 1 197
e 1 198
e 1 199
e 1 200
e 1 201
e 1 202
e 1 203
e 1 206
e 1 207
e 1 208
e 1 211
e 1 87
e 1 86
e 1 83
e 1 80
e 1 70
e 1 69
e 1 68
e 1 67
e 1 66
e 1 65
e 1 64
e 1 63
e 1 103
e 2 3
e 2 4
e 2 5
e 2 6
e 2 7
e 2 8
e 2 9
e 2 10
e 2 11
e 2 12
e 2 13
e 2 14
e 2 15
e 2 16
e 2 33
e 2 36
e 2 41
e 2 43
e 2 45
e 2 47
e 2 48
e 2 51
e 2 54
e 2 56
e 2 57
e 2 59
e 2 60
e 2 61
e 2 62
e 2 71
e 2 72
e 2 73
e 2 74
e 2 75
e 2 76
e 2 77
e 2 78
e 2 79
e 2 81
e 2 84
e 2 88
e 2 90
e 2 92
e 2 95
e 2 97
e 2 106
e 2 113
e 2 114
e 2 121
e 2 124
e 2 126
e 2 129
e 2 132
e 2 134
e 2 135
e 2 140
e 2 141
e 2 142
e 2 145
e 2 146
e 2 149
e 2 159
e 2 160
e 2 161
e 2 162
e 2 163
e 2 164
e 2 166
e 2 172
e 2 174
e 2 175
e 2 176
e 2 177
e 2 178
e 2 179
e 2 180
e 2 181
e 2 182
e 2 183
e 2 184
e 2 190
e 2 191
e 2 193
e 2 195
e 2 197
e 2 198
e 2 199
e 2 200
e 2 201
e 2 202
e 2 203
e 2 206
e 2 207
e 2 208
e 2 211
e 2 87
e 2 86
e 2 83
e 2 80
e 2 70
e 2 69
e 2 68
e 2 67
e 2 66
e 2 65
e 2 64
e 2 63
e 2 103
e 3 4
e 3 5
e 3 6
e 3 7
e 3 8
e 3 9
e 3 10
e 3 11
e 3 12
e 3 13
e 3 14
e 3 15
e 3 16
e 3 33
e 3 36
e 3 41
e 3 43
e 3 45
e 3 47
e 3 48
e 3 51
e 3 54
e 3 56
e 3 57
e 3 59
e 3 60
e 3 61
e 3 62
e 3 71
e 3 72
e 3 73
e 3 74
e 3 75
e 3 76
e 3 77
e 3 78
e 3 79
e 3 81
e 3 84
e 3 88
e 3 90
e 3 92
e 3 95
e 3 97
e 3 106
e 3 113
e 3 114
e 3 121
e 3 124
e 3 126
e 3 129
e 3 132
e 3 134
e 3 135
e 3 140
e 3 141
e 3 142
e 3 145
e 3 146
e 3 149
e 3 159
e 3 160
e 3 161
e 3 162
e 3 163
e 3 164
e 3 166
e 3 172
e 3 174
e 3 175
e 3 176
e 3 177
e 3 178
e 3 179
e 3 180
e 3 181
e 3 182
e 3 183
e 3 184
e 3 190
e 3 191
e 3 193
e 3 195
e 3 197
e 3 198
e 3 199
e 3 200
e 3 201
e 3 202
e 3 203
e 3 206
e 3 207
e 3 208
e 3 211
e 3 87
e 3 86
e 3 83
e 3 80
e 3 70
e 3 69
e 3 68
e 3 67
e 3 66
e 3 65
e 3 64
e 3 63
e 3 103
e 4 5
e 4 6
e 4 7
e 4 8
e 4 9
e 4 10
e 4 11
e 4 12
e 4 13
e 4 14
e 4 15
e 4 16
e 4 33
e 4 36
e 4 41
e 4 43
e 4 45
e 4 47
e 4 48
e 4 51
e 4 54
e 4 56
e 4 57
e 4 59
e 4 60
e 4 61
e 4 62
e 4 71
e 4 72
e 4 73
e 4 74
e 4 75
e 4 76
e 4 77
e 4 78
e 4 79
e 4 81
e 4 84
e 4 88
e 4 90
e 4 92
e 4 95
e 4 97
e 4 106
e 4 113
e 4 114
e 4 121
e 4 124
e 4 126
e 4 129
e 4 132
e 4 134
e 4 135
e 4 140
e 4 141
e 4 142
e 4 145
e 4 146
e 4 149
e 4 159
e 4 160
e 4 161
e 4 162
e 4 163
e 4 164
e 4 166
e 4 172
e 4 174
e 4 175
e 4 176
e 4 177
e 4 178
e 4 179
e 4 180
e 4 181
e 4 182
e 4 183
e 4 184
e 4 190
e 4 191
e 4 193
e 4 195
e 4 197
e 4 198
e 4 199
e 4 200
e 4 201
e 4 202
e 4 203
e 4 206
e 4 207
e 4 208
e 4 211
e 5 6
e 5 7
e 5 8
e 5 9
e 5 10
e 5 11
e 5 12
e 5 13
e 5 14
e 5 15
e 5 16
e 5 33
e 5 36
e 5 41
e 5 43
e 5 45
e 5 47
e 5 48
e 5 51
e 5 54
e 5 56
e 5 57
e 5 59
e 5 60
e 5 61
e 5 62
e 5 71
e 5 72
e 5 73
e 5 74
e 5 75
e 5 76
e 5 77
e 5 78
e 5 79
e 5 81
e 5 84
e 5 88
e 5 90
e 5 92
e 5 95
e 5 97
e 5 106
e 5 113
e 5 114
e 5 121
e 5 124
e 5 126
e 5 129
e 5 132
e 5 134
e 5 135
e 5 140
e 5 141
e 5 142
e 5 145
e 5 146
e 5 149
e 5 159
e 5 160
e 5 161
e 5 162
e 5 163
e 5 164
e 5 166
e 5 172
e 5 174
e 5 175
e 5 176
e 5 177
e 5 178
e 5 179
e 5 180
e 5 181
e 5 182
e 5 183
e 5 184
e 5 190
e 5 191
e 5 193
e 5 195
e 5 197
e 5 198
e 5 199
e 5 200
e 5 201
e 5 202
e 5 203
e 5 206
e 5 207
e 5 208
e 5 211
e 5 63
e 6 7
e 6 8
e 6 9
e 6 10
e 6 11
e 6 12
e 6 13
e 6 14
e 6 15
e 6 16
e 6 33
e 6 36
e 6 41
e 6 43
e 6 45
e 6 47
e 6 48
e 6 51
e 6 54
e 6 56
e 6 57
e 6 59
e 6 60
e 6 61
e 6 62
e 6 71
e 6 72
e 6 73
e 6 74
e 6 75
e 6 76
e 6 77
e 6 78
e 6 79
e 6 81
e 6 84
e 6 88
e 6 90
e 6 92
e 6 95
e 6 97
e 6 106
e 6 113
e 6 114
e 6 121
e 6 124
e 6 126
e 6 129
e 6 132
e 6 134
e 6 135
e 6 140
e 6 141
e 6 142
e 6 145
e 6 146
e 6 149
e 6 159
e 6 160
e 6 161
e 6 162
e 6 163
e 6 164
e 6 166
e 6 172
e 6 174
e 6 175
e 6 176
e 6 177
e 6 178
e 6 179
e 6 180
e 6 181
e 6 182
e 6 183
e 6 184
e 6 190
e 6 191
e 6 193
e 6 195
e 6 197
e 6 198
e 6 199
e 6 200
e 6 201
e 6 202
e 6 203
e 6 206
e 6 207
e 6 208
e 6 211
e 6 64
e 6 63
e 7 8
e 7 9
e 7 10
e 7 11
e 7 12
e 7 13
e 7 14
e 7 15
e 7 16
e 7 33
e 7 36
e 7 41
e 7 43
e 7 45
e 7 47
e 7 48
e 7 51
e 7 54
e 7 56
e 7 57
e 7 59
e 7 60
e 7 61
e 7 62
e 7 71
e 7 72
e 7 73
e 7 74
e 7 75
e 7 76
e 7 77
e 7 78
e 7 79
e 7 81
e 7 84
e 7 88
e 7 90
e 7 92
e 7 95
e 7 97
e 7 106
e 7 113
e 7 114
e 7 121
e 7 124
e 7 126
e 7 129
e 7 132
e 7 134
e 7 135
e 7 140
e 7 141
e 7 142
e 7 145
e 7 146
e 7 149
e 7 159
e 7 160
e 7 161
e 7 162
e 7 163
e 7 164
e 7 166
e 7 172
e 7 174
e 7 175
e 7 176
e 7 177
e 7 178
e 7 179
e 7 180
e 7 181
e 7 182
e 7 183
e 7 184
e 7 190
e 7 191
e 7 193
e 7 195
e 7 197
e 7 198
e 7 199
e 7 200
e 7 201
e 7 202
e 7 203
e 7 206
e 7 207
e 7 208
e 7 211
e 7 65
e 7 64
e 7 63
e 8 9
e 8 10
e 8 11
e 8 12
e 8 13
e 8 14
e 8 15
e 8 16
e 8 33
e 8 36
e 8 41
e 8 43
e 8 45
e 8 47
e 8 48
e 8 51
e 8 54
e 8 56
e 8 57
e 8 59
e 8 60
e 8 61
e 8 62
e 8 71
e 8 72
e 8 73
e 8 74
e 8 75
e 8 76
e 8 77
e 8 78
e 8 79
e 8 81
e 8 84
e 8 88
e 8 90
e 8 92
e 8 95
e 8 97
e 8 106
e 8 113
e 8 114
e 8 121
e 8 124
e 8 126
e 8 129
e 8 132
e 8 134
e 8 135
e 8 140
e 8 141
e 8 142
e 8 145
e 8 146
e 8 149
e 8 159
e 8 160
e 8 161
e 8 162
e 8 163
e 8 164
e 8 166
e 8 172
e 8 174
e 8 175
e 8 176
e 8 177
e 8 178
e 8 179
e 8 180
e 8 181
e 8 182
e 8 183
e 8 184
e 8 190
e 8 191
e 8 193
e 8 195
e 8 197
e 8 198
e 8 199
e 8 200
e 8 201
e 8 202
e 8 203
e 8 206
e 8 207
e 8 208
e 8 211
e 8 66
e 8 65
e 8 64
e 8 63
e 9 10
e 9 11
e 9 12
e 9 13
e 9 14
e 9 15
e 9 16
e 9 33
e 9 36
e 9 41
e 9 43
e 9 45
e 9 47
e 9 48
e 9 51
e 9 54
e 9 56
e 9 57
e 9 59
e 9 60
e 9 61
e 9 62
e 9 71
e 9 72
e 9 73
e 9 74
e 9 75
e 9 76
e 9 77
e 9 78
e 9 79
e 9 81
e 9 84
e 9 88
e 9 90
e 9 92
e 9 95
e 9 97
e 9 106
e 9 113
e 9 114
e 9 121
e 9 124
e 9 126
e 9 129
e 9 132
e 9 134
e 9 135
e 9 140
e 9 141
e 9 142
e 9 145
e 9 146
e 9 149
e 9 159
e 9 160
e 9 161
e 9 162
e 9 163
e 9 164
e 9 166
e 9 172
e 9 174
e 9 175
e 9 176
e 9 177
e 9 178
e 9 179
e 9 180
e 9 181
e 9 182
e 9 183
e 9 184
e 9 190
e 9 191
e 9 193
e 9 195
e 9 197
e 9 198
e 9 199
e 9 200
e 9 201
e 9 202
e 9 203
e 9 206
e 9 207
e 9 208
e 9 211
e 9 67
e 9 66
e 9 65
e 9 64
e 9 63
e 10 11
e 10 12
e 10 13
e 10 14
e 10 15
e 10 16
e 10 33
e 10 36
e 10 41
e 10 43
e 10 45
e 10 47
e 10 48
e 10 51
e 10 54
e 10 56
e 10 57
e 10 59
e 10 60
e 10 61
e 10 62
e 10 71
e 10 72
e 10 73
e 10 74
e 10 75
e 10 76
e 10 77
e 10 78
e 10 79
e 10 81
e 10 84
e 10 88
e 10 90
e 10 92
e 10 95
e 10 97
e 10 106
e 10 113
e 10 114
e 10 121
e 10 124
e 10 126
e 10 129
e 10 132
e 10 134
e 10 135
e 10 140
e 10 141
e 10 142
e 10 145
e 10 146
e 10 149
e 10 159
e 10 160
e 10 161
e 10 162
e 10 163
e 10 164
e 10 166
e 10 172
e 10 174
e 10 175
e 10 176
e 10 177
e 10 178
e 10 179
e 10 180
e 10 181
e 10 182
e 10 183
e 10 184
e 10 190
e 10 191
e 10 193
e 10 195
e 10 197
e 10 198
e 10 199
e 10 200
e 10 201
e 10 202
e 10 203
e 10 206
e 10 207
e 10 208
e 10 211
e 10 68
e 10 67
e 10 66
e 10 65
e 10 64
e 10 63
e 11 12
e 11 13
e 11 14
e 11 15
e 11 16
e 11 33
e 11 36
e 11 41
e 11 43
e 11 45
e 11 47
e 11 48
e 11 51
e 11 54
e 11 56
e 11 57
e 11 59
e 11 60
e 11 61
e 11 62
e 11 71
e 11 72
e 11 73
e 11 74
e 11 75
e 11 76
e 11 77
e 11 78
e 11 79
e 11 81
e 11 84
e 11 88
e 11 90
e 11 92
e 11 95
e 11 97
e 11 106
e 11 113
e 11 114
e 11 121
e 11 124
e 11 126
e 11 129
e 11 132
e 11 134
e 11 135
e 11 140
e 11 141
e 11 142
e 11 145
e 11 146
e 11 149
e 11 159
e 11 160
e 11 161
e 11 162
e 11 163
e 11 164
e 11 166
e 11 172
e 11 174
e 11 175
e 11 176
e 11 177
e 11 178
e 11 179
e 11 180
e 11 181
e 11 182
e 11 183
e 11 184
e 11 190
e 11 191
e 11 193
e 11 195
e 11 197
e 11 198
e 11 199
e 11 200
e 11 201
e 11 202
e 11 203
e 11 206
e 11 207
e 11 208
e 11 211
e 11 70
e 11 69
e 11 68
e 11 67
e 11 66
e 11 65
e 11 64
e 11 63
e 11 87
e 11 86
e 11 83
e 11 80
e 11 103
e 12 13
e 12 14
e 12 15
e 12 16
e 12 33
e 12 36
e 12 41
e 12 43
e 12 45
e 12 47
e 12 48
e 12 51
e 12 54
e 12 56
e 12 57
e 12 59
e 12 60
e 12 61
e 12 62
e 12 71
e 12 72
e 12 73
e 12 74
e 12 75
e 12 76
e 12 77
e 12 78
e 12 79
e 12 81
e 12 84
e 12 88
e 12 90
e 12 92
e 12 95
e 12 97
e 12 106
e 12 113
e 12 114
e 12 121
e 12 124
e 12 126
e 12 129
e 12 132
e 12 134
e 12 135
e 12 140
e 12 141
e 12 142
e 12 145
e 12 146
e 12 149
e 12 159
e 12 160
e 12 161
e 12 162
e 12 163
e 12 164
e 12 166
e 12 172
e 12 174
e 12 175
e 12 176
e 12 177
e 12 178
e 12 179
e 12 180
e 12 181
e 12 182
e 12 183
e 12 184
e 12 190
e 12 191
e 12 193
e 12 195
e 12 197
e 12 198
e 12 199
e 12 200
e 12 201
e 12 202
e 12 203
e 12 206
e 12 207
e 12 208
e 12 211
e 12 80
e 12 70
e 12 69
e 12 68
e 12 67
e 12 66
e 12 65
e 12 64
e 12 63
e 12 87
e 12 86
e 12 83
e 12 103
e 13 14
e 13 15
e 13 16
e 13 33
e 13 36
e 13 41
e 13 43
e 13 45
e 13 47
e 13 48
e 13 51
e 13 54
e 13 56
e 13 57
e 13 59
e 13 60
e 13 61
e 13 62
e 13 71
e 13 72
e 13 73
e 13 74
e 13 75
e 13 76
e 13 77
e 13 78
e 13 79
e 13 81
e 13 84
e 13 88
e 13 90
e 13 92
e 13 95
e 13 97
e 13 106
e 13 113
e 13 114
e 13 121
e 13 124
e 13 126
e 13 129
e 13 132
e 13 134
e 13 135
e 13 140
e 13 141
e 13 142
e 13 145
e 13 146
e 13 149
e 13 159
e 13 160
e 13 161
e 13 162
e 13 163
e 13 164
e 13 166
e 13 172
e 13 174
e 13 175
e 13 176
e 13 177
e 13 178
e 13 179
e 13 180
e 13 181
e 13 182
e 13 183
e 13 184
e 13 190
e 13 191
e 13 193
e 13 195
e 13 197
e 13 198
e 13 199
e 13 200
e 13 201
e 13 202
e 13 203
e 13 206
e 13 207
e 13 208
e 13 211
e 13 83
e 13 80
e 13 70
e 13 69
e 13 68
e 13 67
e 13 66
e 13 65
e 13 64
e 13 63
e 13 87
e 13 86
e 13 103
e 14 15
e 14 16
e 14 33
e 14 36
e 14 41
e 14 43
e 14 45
e 14 47
e 14 48
e 14 51
e 14 54
e 14 56
e 14 57
e 14 59
e 14 60
e 14 61
e 14 62
e 14 71
e 14 72
e 14 73
e 14 74
e 14 75
e 14 76
e 14 77
e 14 78
e 14 79
e 14 81
e 14 84
e 14 88
e 14 90
e 14 92
e 14 95
e 14 97
e 14 106
e 14 113
e 14 114
e 14 121
e 14 124
e 14 126
e 14 129
e 14 132
e 14 134
e 14 135
e 14 140
e 14 141
e 14 142
e 14 145
e 14 146
e 14 149
e 14 159
e 14 160
e 14 161
e 14 162
e 14 163
e 14 164
e 14 166
e 14 172
e 14 174
e 14 175
e 14 176
e 14 177
e 14 178
e 14 179
e 14 180
e 14 181
e 14 182
e 14 183
e 14 184
e 14 190
e 14 191
e 14 193
e 14 195
e 14 197
e 14 198
e 14 199
e 14 200
e 14 201
e 14 202
e 14 203
e 14 206
e 14 207
e 14 208
e 14 211
e 14 86
e 14 83
e 14 80
e 14 70
e 14 69
e 14 68
e 14 67
e 14 66
e 14 65
e 14 64
e 14 63
e 14 87
e 14 103
e 15 16
e 15 33
e 15 36
e 15 41
e 15 43
e 15 45
e 15 47
e 15 48
e 15 51
e 15 54
e 15 56
e 15 57
e 15 59
e 15 60
e 15 61
e 15 62
e 15 71
e 15 72
e 15 73
e 15 74
e 15 75
e 15 76
e 15 77
e 15 78
e 15 79
e 15 81
e 15 84
e 15 88
e 15 90
e 15 92
e 15 95
e 15 97
e 15 106
e 15 113
e 15 114
e 15 121
e 15 124
e 15 126
e 15 129
e 15 132
e 15 134
e 15 135
e 15 140
e 15 141
e 15 142
e 15 145
e 15 146
e 15 149
e 15 159
e 15 160
e 15 161
e 15 162
e 15 163
e 15 164
e 15 166
e 15 172
e 15 174
e 15 175
e 15 176
e 15 177
e 15 178
e 15 179
e 15 180
e 15 181
e 15 182
e 15 183
e 15 184
e 15 190
e 15 191
e 15 193
e 15 195
e 15 197
e 15 198
e 15 199
e 15 200
e 15 201
e 15 202
e 15 203
e 15 206
e 15 207
e 15 208
e 15 211
e 15 87
e 15 86
e 15 83
e 15 80
e 15 103
e 15 70
e 15 69
e 15 68
e 15 67
e 15 66
e 15 65
e 15 64
e 15 63
e 16 33
e 16 36
e 16 41
e 16 43
e 16 45
e 16 47
e 16 48
e 16 51
e 16 54
e 16 56
e 16 57
e 16 59
e 16 60
e 16 61
e 16 62
e 16 71
e 16 72
e 16 73
e 16 74
e 16 75
e 16 76
e 16 77
e 16 78
e 16 79
e 16 81
e 16 84
e 16 88
e 16 90
e 16 92
e 16 95
e 16 97
e 16 106
e 16 113
e 16 114
e 16 121
e 16 124
e 16 126
e 16 129
e 16 132
e 16 134
e 16 135
e 16 140
e 16 141
e 16 142
e 16 145
e 16 146
e 16 149
e 16 159
e 16 160
e 16 161
e 16 162
e 16 163
e 16 164
e 16 166
e 16 172
e 16 174
e 16 175
e 16 176
e 16 177
e 16 178
e 16 179
e 16 180
e 16 181
e 16 182
e 16 183
e 16 184
e 16 190
e 16 191
e 16 193
e 16 195
e 16 197
e 16 198
e 16 199
e 16 200
e 16 201
e 16 202
e 16 203
e 16 206
e 16 207
e 16 208
e 16 211
e 16 69
e 16 68
e 16 67
e 16 66
e 16 65
e 16 64
e 16 63
e 16 87
e 16 86
e 16 83
e 16 80
e 16 103
e 16 70
e 17 18
e 17 19
e 17 20
e 17 21
e 17 22
e 17 23
e 17 24
e 17 25
e 17 26
e 17 27
e 17 28
e 17 29
e 17 30
e 17 31
e 17 32
e 17 63
e 17 64
e 17 65
e 17 66
e 17 67
e 17 68
e 17 69
e 17 70
e 17 80
e 17 83
e 17 86
e 17 87
e 17 103
e 17 47
e 17 92
e 17 90
e 17 88
e 17 84
e 17 81
e 17 79
e 17 78
e 17 77
e 17 76
e 17 75
e 17 74
e 17 73
e 17 72
e 17 71
e 17 97
e 17 95
e 17 106
e 17 51
e 17 48
e 17 36
e 17 33
e 17 59
e 17 45
e 17 43
e 17 54
e 17 41
e 17 114
e 17 113
e 17 61
e 17 60
e 17 211
e 17 135
e 17 134
e 17 132
e 17 129
e 17 62
e 17 126
e 17 124
e 17 142
e 17 141
e 17 140
e 17 161
e 17 160
e 17 159
e 17 163
e 17 162
e 17 57
e 17 208
e 17 207
e 17 206
e 17 56
e 17 203
e 17 202
e 17 201
e 17 200
e 17 199
e 17 198
e 17 197
e 17 195
e 17 193
e 17 191
e 17 190
e 17 180
e 17 179
e 17 178
e 17 177
e 17 176
e 17 175
e 17 174
e 17 172
e 17 184
e 17 183
e 17 182
e 17 181
e 17 146
e 17 145
e 17 149
e 17 166
e 17 164
e 17 121
e 18 19
e 18 20
e 18 21
e 18 22
e 18 23
e 18 24
e 18 25
e 18 26
e 18 27
e 18 28
e 18 29
e 18 30
e 18 31
e 18 32
e 18 63
e 18 64
e 18 65
e 18 66
e 18 67
e 18 68
e 18 69
e 18 70
e 18 80
e 18 83
e 18 86
e 18 87
e 18 103
e 19 20
e 19 21
e 19 22
e 19 23
e 19 24
e 19 25
e 19 26
e 19 27
e 19 28
e 19 29
e 19 30
e 19 31
e 19 32
e 19 63
e 19 64
e 19 65
e 19 66
e 19 67
e 19 68
e 19 69
e 19 70
e 19 80
e 19 83
e 19 86
e 19 87
e 19 103
e 19 71
e 20 21
e 20 22
e 20 23
e 20 24
e 20 25
e 20 26
e 20 27
e 20 28
e 20 29
e 20 30
e 20 31
e 20 32
e 20 63
e 20 64
e 20 65
e 20 66
e 20 67
e 20 68
e 20 69
e 20 70
e 20 80
e 20 83
e 20 86
e 20 87
e 20 103
e 20 72
e 20 71
e 21 22
e 21 23
e 21 24
e 21 25
e 21 26
e 21 27
e 21 28
e 21 29
e 21 30
e 21 31
e 21 32
e 21 63
e 21 64
e 21 65
e 21 66
e 21 67
e 21 68
e 21 69
e 21 70
e 21 80
e 21 83
e 21 86
e 21 87
e 21 103
e 21 73
e 21 72
e 21 71
e 22 23
e 22 24
e 22 25
e 22 26
e 22 27
e 22 28
e 22 29
e 22 30
e 22 31
e 22 32
e 22 63
e 22 64
e 22 65
e 22 66
e 22 67
e 22 68
e 22 69
e 22 70
e 22 80
e 22 83
e 22 86
e 22 87
e 22 103
e 22 74
e 22 73
e 22 72
e 22 71
e 23 24
e 23 25
e 23 26
e 23 27
e 23 28
e 23 29
e 23 30
e 23 31
e 23 32
e 23 63
e 23 64
e 23 65
e 23 66
e 23 67
e 23 68
e 23 69
e 23 70
e 23 80
e 23 83
e 23 86
e 23 87
e 23 103
e 23 75
e 23 74
e 23 73
e 23 72
e 23 71
e 24 25
e 24 26
e 24 27
e 24 28
e 24 29
e 24 30
e 24 31
e 24 32
e 24 63
e 24 64
e 24 65
e 24 66
e 24 67
e 24 68
e 24 69
e 24 70
e 24 80
e 24 83
e 24 86
e 24 87
e 24 103
e 24 76
e 24 75
e 24 74
e 24 73
e 24 72
e 24 71
e 25 26
e 25 27
e 25 28
e 25 29
e 25 30
e 25 31
e 25 32
e 25 63
e 25 64
e 25 65
e 25 66
e 25 67
e 25 68
e 25 69
e 25 70
e 25 80
e 25 83
e 25 86
e 25 87
e 25 103
e 25 77
e 25 76
e 25 75
e 25 74
e 25 73
e 25 72
e 25 71
e 26 27
e 26 28
e 26 29
e 26 30
e 26 31
e 26 32
e 26 63
e 26 64
e 26 65
e 26 66
e 26 67
e 26 68
e 26 69
e 26 70
e 26 80
e 26 83
e 26 86
e 26 87
e 26 103
e 26 78
e 26 77
e 26 76
e 26 75
e 26 74
e 26 73
e 26 72
e 26 71
e 27 28
e 27 29
e 27 30
e 27 31
e 27 32
e 27 63
e 27 64
e 27 65
e 27 66
e 27 67
e 27 68
e 27 69
e 27 70
e 27 80
e 27 83
e 27 86
e 27 87
e 27 103
e 27 106
e 27 92
e 27 90
e 27 48
e 27 36
e 27 33
e 27 88
e 27 84
e 27 81
e 27 79
e 27 78
e 27 77
e 27 76
e 27 75
e 27 74
e 27 73
e 27 72
e 27 71
e 27 47
e 27 59
e 27 45
e 27 43
e 27 54
e 27 41
e 27 114
e 27 113
e 27 61
e 27 60
e 27 211
e 27 135
e 27 134
e 27 132
e 27 129
e 27 62
e 27 126
e 27 124
e 27 142
e 27 141
e 27 140
e 27 161
e 27 160
e 27 159
e 27 163
e 27 162
e 27 57
e 27 208
e 27 207
e 27 206
e 27 56
e 27 203
e 27 202
e 27 201
e 27 200
e 27 199
e 27 198
e 27 197
e 27 195
e 27 193
e 27 191
e 27 190
e 27 180
e 27 179
e 27 178
e 27 177
e 27 176
e 27 175
e 27 174
e 27 172
e 27 184
e 27 183
e 27 182
e 27 181
e 27 146
e 27 145
e 27 149
e 27 166
e 27 164
e 27 121
e 27 51
e 28 29
e 28 30
e 28 31
e 28 32
e 28 63
e 28 64
e 28 65
e 28 66
e 28 67
e 28 68
e 28 69
e 28 70
e 28 80
e 28 83
e 28 86
e 28 87
e 28 103
e 28 92
e 28 90
e 28 48
e 28 36
e 28 33
e 28 88
e 28 84
e 28 81
e 28 79
e 28 78
e 28 77
e 28 76
e 28 75
e 28 74
e 28 73
e 28 72
e 28 71
e 28 47
e 28 54
e 28 45
e 28 43
e 28 41
e 28 106
e 28 59
e 28 140
e 29 30
e 29 31
e 29 32
e 29 63
e 29 64
e 29 65
e 29 66
e 29 67
e 29 68
e 29 69
e 29 70
e 29 80
e 29 83
e 29 86
e 29 87
e 29 103
e 29 92
e 29 90
e 29 48
e 29 36
e 29 33
e 29 88
e 29 84
e 29 81
e 29 79
e 29 78
e 29 77
e 29 76
e 29 75
e 29 74
e 29 73
e 29 72
e 29 71
e 29 47
e 29 54
e 29 45
e 29 43
e 29 41
e 29 106
e 29 59
e 29 140
e 30 31
e 30 32
e 30 63
e 30 64
e 30 65
e 30 66
e 30 67
e 30 68
e 30 69
e 30 70
e 30 80
e 30 83
e 30 86
e 30 87
e 30 103
e 30 92
e 30 90
e 30 48
e 30 36
e 30 33
e 30 88
e 30 84
e 30 81
e 30 79
e 30 78
e 30 77
e 30 76
e 30 75
e 30 74
e 30 73
e 30 72
e 30 71
e 30 47
e 30 54
e 30 45
e 30 43
e 30 41
e 30 106
e 30 59
e 30 140
e 31 32
e 31 63
e 31 64
e 31 65
e 31 66
e 31 67
e 31 68
e 31 69
e 31 70
e 31 80
e 31 83
e 31 86
e 31 87
e 31 103
e 31 92
e 31 90
e 31 48
e 31 36
e 31 33
e 31 88
e 31 84
e 31 81
e 31 79
e 31 78
e 31 77
e 31 76
e 31 75
e 31 74
e 31 73
e 31 72
e 31 71
e 31 47
e 31 54
e 31 45
e 31 43
e 31 41
e 31 106
e 31 59
e 31 140
e 32 63
e 32 64
e 32 65
e 32 66
e 32 67
e 32 68
e 32 69
e 32 70
e 32 80
e 32 83
e 32 86
e 32 87
e 32 103
e 32 92
e 32 90
e 32 48
e 32 36
e 32 33
e 32 88
e 32 84
e 32 81
e 32 79
e 32 78
e 32 77
e 32 76
e 32 75
e 32 74
e 32 73
e 32 72
e 32 71
e 32 47
e 32 54
e 32 45
e 32 43
e 32 41
e 32 106
e 32 59
e 32 140
e 33 106
e 33 51
e 33 48
e 33 36
e 33 92
e 33 90
e 33 88
e 33 84
e 33 79
e 33 78
e 33 77
e 33 76
e 33 75
e 33 74
e 33 73
e 33 72
e 33 71
e 33 47
e 33 59
e 33 45
e 33 43
e 33 54
e 33 114
e 33 113
e 33 61
e 33 60
e 33 211
e 33 135
e 33 134
e 33 132
e 33 129
e 33 62
e 33 126
e 33 124
e 33 142
e 33 141
e 33 140
e 33 161
e 33 160
e 33 159
e 33 163
e 33 162
e 33 146
e 33 145
e 33 41
e 33 81
e 33 149
e 33 121
e 36 106
e 36 51
e 36 48
e 36 92
e 36 90
e 36 88
e 36 81
e 36 79
e 36 78
e 36 77
e 36 76
e 36 75
e 36 74
e 36 73
e 36 72
e 36 71
e 36 47
e 36 59
e 36 45
e 36 43
e 36 54
e 36 41
e 36 114
e 36 113
e 36 61
e 36 60
e 36 211
e 36 135
e 36 134
e 36 132
e 36 129
e 36 62
e 36 126
e 36 124
e 36 142
e 36 141
e 36 140
e 36 161
e 36 160
e 36 159
e 36 163
e 36 162
e 36 57
e 36 208
e 36 207
e 36 206
e 36 56
e 36 203
e 36 202
e 36 201
e 36 200
e 36 199
e 36 198
e 36 197
e 36 195
e 36 193
e 36 191
e 36 190
e 36 180
e 36 179
e 36 178
e 36 177
e 36 176
e 36 175
e 36 174
e 36 172
e 36 184
e 36 183
e 36 182
e 36 181
e 36 146
e 36 145
e 36 84
e 36 149
e 36 166
e 36 164
e 36 121
e 41 59
e 41 45
e 41 43
e 41 54
e 41 90
e 41 51
e 41 92
e 41 106
e 41 48
e 41 88
e 41 84
e 41 81
e 41 79
e 41 78
e 41 77
e 41 76
e 41 75
e 41 74
e 41 73
e 41 72
e 41 71
e 41 114
e 41 113
e 41 61
e 41 60
e 41 211
e 41 135
e 41 134
e 41 132
e 41 129
e 41 62
e 41 126
e 41 124
e 41 142
e 41 141
e 41 140
e 41 161
e 41 160
e 41 159
e 41 163
e 41 162
e 41 57
e 41 208
e 41 207
e 41 206
e 41 56
e 41 203
e 41 202
e 41 201
e 41 200
e 41 199
e 41 198
e 41 197
e 41 195
e 41 193
e 41 191
e 41 190
e 41 180
e 41 179
e 41 178
e 41 177
e 41 176
e 41 175
e 41 174
e 41 172
e 41 184
e 41 183
e 41 182
e 41 181
e 41 146
e 41 145
e 41 149
e 41 166
e 41 164
e 41 121
e 43 59
e 43 92
e 43 90
e 43 54
e 43 51
e 43 48
e 43 106
e 43 88
e 43 84
e 43 81
e 43 79
e 43 78
e 43 77
e 43 76
e 43 75
e 43 74
e 43 73
e 43 72
e 43 71
e 43 114
e 43 113
e 43 61
e 43 60
e 43 211
e 43 135
e 43 134
e 43 132
e 43 129
e 43 62
e 43 126
e 43 124
e 43 142
e 43 141
e 43 140
e 43 161
e 43 160
e 43 159
e 43 163
e 43 162
e 43 57
e 43 208
e 43 207
e 43 206
e 43 56
e 43 203
e 43 202
e 43 201
e 43 200
e 43 199
e 43 198
e 43 197
e 43 195
e 43 193
e 43 191
e 43 190
e 43 180
e 43 179
e 43 178
e 43 177
e 43 176
e 43 175
e 43 174
e 43 172
e 43 184
e 43 183
e 43 182
e 43 181
e 43 45
e 43 146
e 43 145
e 43 149
e 43 166
e 43 164
e 43 121
e 45 59
e 45 92
e 45 90
e 45 54
e 45 51
e 45 48
e 45 106
e 45 88
e 45 84
e 45 81
e 45 79
e 45 78
e 45 77
e 45 76
e 45 75
e 45 74
e 45 73
e 45 72
e 45 71
e 45 114
e 45 113
e 45 61
e 45 60
e 45 211
e 45 135
e 45 134
e 45 132
e 45 129
e 45 62
e 45 126
e 45 124
e 45 142
e 45 141
e 45 140
e 45 161
e 45 160
e 45 159
e 45 163
e 45 162
e 45 57
e 45 208
e 45 207
e 45 206
e 45 56
e 45 203
e 45 202
e 45 201
e 45 200
e 45 199
e 45 198
e 45 197
e 45 195
e 45 193
e 45 191
e 45 190
e 45 180
e 45 179
e 45 178
e 45 177
e 45 176
e 45 175
e 45 174
e 45 172
e 45 146
e 45 145
e 45 149
e 45 166
e 45 164
e 45 121
e 47 92
e 47 88
e 47 84
e 47 81
e 47 79
e 47 78
e 47 77
e 47 76
e 47 75
e 47 74
e 47 73
e 47 72
e 47 71
e 47 97
e 47 95
e 47 90
e 47 51
e 47 48
e 48 106
e 48 51
e 48 92
e 48 90
e 48 88
e 48 84
e 48 81
e 48 79
e 48 78
e 48 77
e 48 76
e 48 75
e 48 74
e 48 73
e 48 72
e 48 71
e 48 59
e 48 114
e 48 113
e 48 61
e 48 60
e 48 211
e 48 135
e 48 134
e 48 132
e 48 129
e 48 62
e 48 126
e 48 124
e 48 142
e 48 141
e 48 140
e 48 161
e 48 160
e 48 159
e 48 163
e 48 162
e 48 193
e 48 191
e 48 190
e 48 146
e 48 145
e 48 54
e 48 149
e 48 121
e 51 106
e 51 92
e 51 90
e 51 88
e 51 84
e 51 81
e 51 79
e 51 78
e 51 77
e 51 76
e 51 75
e 51 74
e 51 73
e 51 72
e 51 71
e 51 59
e 51 54
e 51 114
e 51 113
e 51 61
e 51 60
e 51 211
e 51 135
e 51 134
e 51 132
e 51 129
e 51 62
e 51 126
e 51 124
e 51 142
e 51 141
e 51 140
e 51 161
e 51 160
e 51 159
e 51 163
e 51 162
e 51 57
e 51 208
e 51 207
e 51 206
e 51 56
e 51 203
e 51 202
e 51 201
e 51 200
e 51 199
e 51 198
e 51 197
e 51 195
e 51 193
e 51 191
e 51 190
e 51 180
e 51 179
e 51 178
e 51 177
e 51 176
e 51 175
e 51 174
e 51 172
e 51 184
e 51 183
e 51 182
e 51 181
e 51 149
e 51 166
e 51 164
e 51 121
e 54 59
e 54 90
e 54 92
e 54 106
e 54 88
e 54 84
e 54 81
e 54 79
e 54 78
e 54 77
e 54 76
e 54 75
e 54 74
e 54 73
e 54 72
e 54 71
e 54 114
e 54 113
e 54 61
e 54 60
e 54 211
e 54 135
e 54 134
e 54 132
e 54 129
e 54 62
e 54 126
e 54 124
e 54 142
e 54 141
e 54 140
e 54 161
e 54 160
e 54 159
e 54 163
e 54 162
e 54 57
e 54 208
e 54 207
e 54 206
e 54 56
e 54 203
e 54 202
e 54 201
e 54 200
e 54 199
e 54 198
e 54 197
e 54 195
e 54 193
e 54 191
e 54 190
e 54 180
e 54 179
e 54 178
e 54 177
e 54 176
e 54 175
e 54 174
e 54 172
e 54 184
e 54 183
e 54 182
e 54 181
e 54 146
e 54 145
e 54 149
e 54 166
e 54 164
e 54 121
e 56 57
e 56 208
e 56 207
e 56 206
e 56 191
e 56 201
e 56 195
e 56 162
e 56 106
e 56 59
e 56 92
e 56 90
e 56 124
e 56 140
e 56 132
e 56 62
e 56 88
e 56 84
e 56 81
e 56 79
e 56 78
e 56 77
e 56 76
e 56 75
e 56 74
e 56 73
e 56 72
e 56 71
e 56 164
e 57 140
e 57 162
e 57 106
e 57 59
e 57 92
e 57 90
e 57 124
e 57 132
e 57 62
e 57 88
e 57 84
e 57 81
e 57 79
e 57 78
e 57 77
e 57 76
e 57 75
e 57 74
e 57 73
e 57 72
e 57 71
e 57 180
e 57 179
e 57 178
e 57 177
e 57 176
e 57 175
e 57 174
e 57 172
e 57 184
e 57 183
e 57 182
e 57 181
e 59 106
e 59 92
e 59 90
e 59 88
e 59 84
e 59 81
e 59 79
e 59 78
e 59 77
e 59 76
e 59 75
e 59 74
e 59 73
e 59 72
e 59 71
e 59 113
e 59 142
e 59 141
e 59 140
e 59 124
e 59 132
e 59 62
e 59 161
e 59 160
e 59 159
e 59 163
e 59 162
e 59 208
e 59 207
e 59 206
e 59 203
e 59 202
e 59 201
e 59 200
e 59 199
e 59 198
e 59 197
e 59 195
e 59 193
e 59 191
e 59 190
e 59 180
e 59 179
e 59 178
e 59 177
e 59 176
e 59 175
e 59 174
e 59 172
e 59 184
e 59 183
e 59 182
e 59 181
e 59 146
e 59 145
e 59 149
e 59 166
e 59 164
e 60 61
e 60 106
e 60 92
e 60 90
e 60 88
e 60 84
e 60 81
e 60 79
e 60 78
e 60 77
e 60 76
e 60 75
e 60 74
e 60 73
e 60 72
e 60 71
e 60 126
e 60 124
e 61 106
e 61 92
e 61 90
e 61 88
e 61 84
e 61 81
e 61 79
e 61 78
e 61 77
e 61 76
e 61 75
e 61 74
e 61 73
e 61 72
e 61 71
e 61 129
e 61 62
e 61 126
e 61 124
e 62 135
e 62 134
e 62 132
e 62 129
e 62 92
e 62 90
e 62 124
e 62 106
e 62 88
e 62 84
e 62 81
e 62 79
e 62 78
e 62 77
e 62 76
e 62 75
e 62 74
e 62 73
e 62 72
e 62 71
e 62 142
e 62 141
e 62 140
e 62 161
e 62 160
e 62 159
e 62 163
e 62 162
e 62 208
e 62 207
e 62 206
e 62 203
e 62 202
e 62 201
e 62 200
e 62 199
e 62 198
e 62 197
e 62 195
e 62 193
e 62 191
e 62 190
e 62 180
e 62 179
e 62 178
e 62 177
e 62 176
e 62 175
e 62 174
e 62 172
e 62 184
e 62 183
e 62 182
e 62 181
e 62 146
e 62 145
e 62 166
e 62 164
e 63 87
e 63 86
e 63 83
e 63 80
e 63 70
e 63 69
e 63 68
e 63 67
e 63 66
e 63 65
e 63 64
e 63 103
e 64 87
e 64 86
e 64 83
e 64 80
e 64 70
e 64 69
e 64 68
e 64 67
e 64 66
e 64 65
e 64 103
e 65 87
e 65 86
e 65 83
e 65 80
e 65 70
e 65 69
e 65 68
e 65 67
e 65 66
e 65 103
e 66 87
e 66 86
e 66 83
e 66 80
e 66 70
e 66 69
e 66 68
e 66 67
e 66 103
e 67 87
e 67 86
e 67 83
e 67 80
e 67 70
e 67 69
e 67 68
e 67 103
e 68 87
e 68 86
e 68 83
e 68 80
e 68 70
e 68 69
e 68 103
e 69 87
e 69 86
e 69 83
e 69 80
e 69 70
e 69 103
e 70 87
e 70 86
e 70 83
e 70 80
e 70 103
e 71 92
e 71 90
e 71 88
e 71 84
e 71 81
e 71 79
e 71 78
e 71 77
e 71 76
e 71 75
e 71 74
e 71 73
e 71 72
e 71 97
e 71 95
e 71 106
e 71 114
e 71 113
e 71 211
e 71 135
e 71 134
e 71 132
e 71 129
e 71 126
e 71 124
e 71 142
e 71 141
e 71 140
e 71 161
e 71 160
e 71 159
e 71 163
e 71 162
e 71 208
e 71 207
e 71 206
e 71 203
e 71 202
e 71 201
e 71 200
e 71 199
e 71 198
e 71 197
e 71 195
e 71 193
e 71 191
e 71 190
e 71 180
e 71 179
e 71 178
e 71 177
e 71 176
e 71 175
e 71 174
e 71 172
e 71 184
e 71 183
e 71 182
e 71 181
e 71 146
e 71 145
e 71 149
e 71 166
e 71 164
e 71 121
e 72 92
e 72 90
e 72 88
e 72 84
e 72 81
e 72 79
e 72 78
e 72 77
e 72 76
e 72 75
e 72 74
e 72 73
e 72 97
e 72 95
e 72 106
e 72 114
e 72 113
e 72 211
e 72 135
e 72 134
e 72 132
e 72 129
e 72 126
e 72 124
e 72 142
e 72 141
e 72 140
e 72 161
e 72 160
e 72 159
e 72 163
e 72 162
e 72 208
e 72 207
e 72 206
e 72 203
e 72 202
e 72 201
e 72 200
e 72 199
e 72 198
e 72 197
e 72 195
e 72 193
e 72 191
e 72 190
e 72 180
e 72 179
e 72 178
e 72 177
e 72 176
e 72 175
e 72 174
e 72 172
e 72 184
e 72 183
e 72 182
e 72 181
e 72 146
e 72 145
e 72 149
e 72 166
e 72 164
e 72 121
e 73 92
e 73 90
e 73 88
e 73 84
e 73 81
e 73 79
e 73 78
e 73 77
e 73 76
e 73 75
e 73 74
e 73 97
e 73 95
e 73 106
e 73 114
e 73 113
e 73 211
e 73 135
e 73 134
e 73 132
e 73 129
e 73 126
e 73 124
e 73 142
e 73 141
e 73 140
e 73 161
e 73 160
e 73 159
e 73 163
e 73 162
e 73 208
e 73 207
e 73 206
e 73 203
e 73 202
e 73 201
e 73 200
e 73 199
e 73 198
e 73 197
e 73 195
e 73 193
e 73 191
e 73 190
e 73 180
e 73 179
e 73 178
e 73 177
e 73 176
e 73 175
e 73 174
e 73 172
e 73 184
e 73 183
e 73 182
e 73 181
e 73 146
e 73 145
e 73 149
e 73 166
e 73 164
e 73 121
e 74 92
e 74 90
e 74 88
e 74 84
e 74 81
e 74 79
e 74 78
e 74 77
e 74 76
e 74 75
e 74 97
e 74 95
e 74 106
e 74 114
e 74 113
e 74 211
e 74 135
e 74 134
e 74 132
e 74 129
e 74 126
e 74 124
e 74 142
e 74 141
e 74 140
e 74 161
e 74 160
e 74 159
e 74 163
e 74 162
e 74 208
e 74 207
e 74 206
e 74 203
e 74 202
e 74 201
e 74 200
e 74 199
e 74 198
e 74 197
e 74 195
e 74 193
e 74 191
e 74 190
e 74 180
e 74 179
e 74 178
e 74 177
e 74 176
e 74 175
e 74 174
e 74 172
e 74 184
e 74 183
e 74 182
e 74 181
e 74 146
e 74 145
e 74 149
e 74 166
e 74 164
e 74 121
e 75 92
e 75 90
e 75 88
e 75 84
e 75 81
e 75 79
e 75 78
e 75 77
e 75 76
e 75 97
e 75 95
e 75 106
e 75 114
e 75 113
e 75 211
e 75 135
e 75 134
e 75 132
e 75 129
e 75 126
e 75 124
e 75 142
e 75 141
e 75 140
e 75 161
e 75 160
e 75 159
e 75 163
e 75 162
e 75 208
e 75 207
e 75 206
e 75 203
e 75 202
e 75 201
e 75 200
e 75 199
e 75 198
e 75 197
e 75 195
e 75 193
e 75 191
e 75 190
e 75 180
e 75 179
e 75 178
e 75 177
e 75 176
e 75 175
e 75 174
e 75 172
e 75 184
e 75 183
e 75 182
e 75 181
e 75 146
e 75 145
e 75 149
e 75 166
e 75 164
e 75 121
e 76 92
e 76 90
e 76 88
e 76 84
e 76 81
e 76 79
e 76 78
e 76 77
e 76 97
e 76 95
e 76 106
e 76 114
e 76 113
e 76 211
e 76 135
e 76 134
e 76 132
e 76 129
e 76 126
e 76 124
e 76 142
e 76 141
e 76 140
e 76 161
e 76 160
e 76 159
e 76 163
e 76 162
e 76 208
e 76 207
e 76 206
e 76 203
e 76 202
e 76 201
e 76 200
e 76 199
e 76 198
e 76 197
e 76 195
e 76 193
e 76 191
e 76 190
e 76 180
e 76 179
e 76 178
e 76 177
e 76 176
e 76 175
e 76 174
e 76 172
e 76 184
e 76 183
e 76 182
e 76 181
e 76 146
e 76 145
e 76 149
e 76 166
e 76 164
e 76 121
e 77 92
e 77 90
e 77 88
e 77 84
e 77 81
e 77 79
e 77 78
e 77 97
e 77 95
e 77 106
e 77 114
e 77 113
e 77 211
e 77 135
e 77 134
e 77 132
e 77 129
e 77 126
e 77 124
e 77 142
e 77 141
e 77 140
e 77 161
e 77 160
e 77 159
e 77 163
e 77 162
e 77 208
e 77 207
e 77 206
e 77 203
e 77 202
e 77 201
e 77 200
e 77 199
e 77 198
e 77 197
e 77 195
e 77 193
e 77 191
e 77 190
e 77 180
e 77 179
e 77 178
e 77 177
e 77 176
e 77 175
e 77 174
e 77 172
e 77 184
e 77 183
e 77 182
e 77 181
e 77 146
e 77 145
e 77 149
e 77 166
e 77 164
e 77 121
e 78 92
e 78 90
e 78 88
e 78 84
e 78 81
e 78 79
e 78 97
e 78 95
e 78 106
e 78 114
e 78 113
e 78 211
e 78 135
e 78 134
e 78 132
e 78 129
e 78 126
e 78 124
e 78 142
e 78 141
e 78 140
e 78 161
e 78 160
e 78 159
e 78 163
e 78 162
e 78 208
e 78 207
e 78 206
e 78 203
e 78 202
e 78 201
e 78 200
e 78 199
e 78 198
e 78 197
e 78 195
e 78 193
e 78 191
e 78 190
e 78 180
e 78 179
e 78 178
e 78 177
e 78 176
e 78 175
e 78 174
e 78 172
e 78 184
e 78 183
e 78 182
e 78 181
e 78 146
e 78 145
e 78 149
e 78 166
e 78 164
e 78 121
e 79 92
e 79 90
e 79 88
e 79 84
e 79 81
e 79 97
e 79 95
e 79 106
e 79 114
e 79 113
e 79 211
e 79 135
e 79 134
e 79 132
e 79 129
e 79 126
e 79 124
e 79 142
e 79 141
e 79 140
e 79 161
e 79 160
e 79 159
e 79 163
e 79 162
e 79 208
e 79 207
e 79 206
e 79 203
e 79 202
e 79 201
e 79 200
e 79 199
e 79 198
e 79 197
e 79 195
e 79 193
e 79 191
e 79 190
e 79 180
e 79 179
e 79 178
e 79 177
e 79 176
e 79 175
e 79 174
e 79 172
e 79 184
e 79 183
e 79 182
e 79 181
e 79 146
e 79 145
e 79 149
e 79 166
e 79 164
e 79 121
e 80 87
e 80 86
e 80 83
e 80 103
e 81 92
e 81 90
e 81 88
e 81 84
e 81 97
e 81 95
e 81 106
e 81 114
e 81 113
e 81 211
e 81 135
e 81 134
e 81 132
e 81 129
e 81 126
e 81 124
e 81 142
e 81 141
e 81 140
e 81 161
e 81 160
e 81 159
e 81 163
e 81 162
e 81 208
e 81 207
e 81 206
e 81 203
e 81 202
e 81 201
e 81 200
e 81 199
e 81 198
e 81 197
e 81 195
e 81 193
e 81 191
e 81 190
e 81 180
e 81 179
e 81 178
e 81 177
e 81 176
e 81 175
e 81 174
e 81 172
e 81 184
e 81 183
e 81 182
e 81 181
e 81 146
e 81 145
e 81 149
e 81 166
e 81 164
e 81 121
e 83 87
e 83 86
e 83 103
e 84 92
e 84 90
e 84 88
e 84 97
e 84 95
e 84 106
e 84 114
e 84 113
e 84 211
e 84 135
e 84 134
e 84 132
e 84 129
e 84 126
e 84 124
e 84 142
e 84 141
e 84 140
e 84 161
e 84 160
e 84 159
e 84 163
e 84 162
e 84 208
e 84 207
e 84 206
e 84 203
e 84 202
e 84 201
e 84 200
e 84 199
e 84 198
e 84 197
e 84 195
e 84 193
e 84 191
e 84 190
e 84 180
e 84 179
e 84 178
e 84 177
e 84 176
e 84 175
e 84 174
e 84 172
e 84 184
e 84 183
e 84 182
e 84 181
e 84 146
e 84 145
e 84 149
e 84 166
e 84 164
e 84 121
e 86 87
e 86 103
e 87 103
e 88 92
e 88 90
e 88 97
e 88 95
e 88 106
e 88 114
e 88 113
e 88 211
e 88 135
e 88 134
e 88 132
e 88 129
e 88 126
e 88 124
e 88 142
e 88 141
e 88 140
e 88 161
e 88 160
e 88 159
e 88 163
e 88 162
e 88 208
e 88 207
e 88 206
e 88 203
e 88 202
e 88 201
e 88 200
e 88 199
e 88 198
e 88 197
e 88 195
e 88 193
e 88 191
e 88 190
e 88 180
e 88 179
e 88 178
e 88 177
e 88 176
e 88 175
e 88 174
e 88 172
e 88 184
e 88 183
e 88 182
e 88 181
e 88 146
e 88 145
e 88 149
e 88 166
e 88 164
e 88 121
e 90 92
e 90 97
e 90 95
e 90 106
e 90 114
e 90 113
e 90 211
e 90 135
e 90 134
e 90 132
e 90 129
e 90 126
e 90 124
e 90 142
e 90 141
e 90 140
e 90 161
e 90 160
e 90 159
e 90 163
e 90 162
e 90 208
e 90 207
e 90 206
e 90 203
e 90 202
e 90 201
e 90 200
e 90 199
e 90 198
e 90 197
e 90 195
e 90 193
e 90 191
e 90 190
e 90 180
e 90 179
e 90 178
e 90 177
e 90 176
e 90 175
e 90 174
e 90 172
e 90 184
e 90 183
e 90 182
e 90 181
e 90 146
e 90 145
e 90 149
e 90 166
e 90 164
e 90 121
e 92 97
e 92 95
e 92 106
e 92 114
e 92 113
e 92 211
e 92 135
e 92 134
e 92 132
e 92 129
e 92 126
e 92 124
e 92 142
e 92 141
e 92 140
e 92 161
e 92 160
e 92 159
e 92 163
e 92 162
e 92 208
e 92 207
e 92 206
e 92 203
e 92 202
e 92 201
e 92 200
e 92 199
e 92 198
e 92 197
e 92 195
e 92 193
e 92 191
e 92 190
e 92 180
e 92 179
e 92 178
e 92 177
e 92 176
e 92 175
e 92 174
e 92 172
e 92 184
e 92 183
e 92 182
e 92 181
e 92 146
e 92 145
e 92 149
e 92 166
e 92 164
e 92 121
e 106 114
e 106 113
e 106 211
e 106 135
e 106 134
e 106 132
e 106 129
e 106 126
e 106 124
e 106 142
e 106 141
e 106 140
e 106 161
e 106 160
e 106 159
e 106 163
e 106 162
e 106 208
e 106 207
e 106 206
e 106 203
e 106 202
e 106 201
e 106 200
e 106 199
e 106 198
e 106 197
e 106 195
e 106 193
e 106 191
e 106 190
e 106 180
e 106 179
e 106 178
e 106 177
e 106 176
e 106 175
e 106 174
e 106 172
e 106 184
e 106 183
e 106 182
e 106 181
e 106 146
e 106 145
e 106 149
e 106 166
e 106 164
e 106 121
e 124 135
e 124 134
e 124 132
e 124 129
e 124 126
e 124 142
e 124 141
e 124 140
e 124 161
e 124 160
e 124 159
e 124 163
e 124 162
e 124 208
e 124 207
e 124 206
e 124 203
e 124 202
e 124 201
e 124 200
e 124 199
e 124 198
e 124 197
e 124 195
e 124 193
e 124 191
e 124 190
e 124 180
e 124 179
e 124 178
e 124 177
e 124 176
e 124 175
e 124 174
e 124 172
e 124 166
e 124 164
e 132 135
e 132 134
e 132 142
e 132 141
e 132 140
e 132 161
e 132 160
e 132 159
e 132 163
e 132 162
e 132 208
e 132 207
e 132 206
e 132 203
e 132 202
e 132 201
e 132 200
e 132 199
e 132 198
e 132 197
e 132 195
e 132 193
e 132 191
e 132 190
e 132 180
e 132 179
e 132 178
e 132 177
e 132 176
e 132 175
e 132 174
e 132 172
e 132 184
e 132 183
e 132 182
e 132 181
e 132 146
e 132 145
e 132 166
e 132 164
e 140 142
e 140 141
e 140 161
e 140 160
e 140 159
e 140 163
e 140 162
e 140 208
e 140 207
e 140 206
e 140 203
e 140 202
e 140 201
e 140 200
e 140 199
e 140 198
e 140 197
e 140 195
e 140 193
e 140 191
e 140 190
e 140 180
e 140 179
e 140 178
e 140 177
e 140 176
e 140 175
e 140 174
e 140 172
e 140 184
e 140 183
e 140 182
e 140 181
e 140 146
e 140 145
e 140 166
e 140 164
e 159 160
e 162 163
e 162 208
e 162 207
e 162 206
e 162 203
e 162 202
e 162 201
e 162 200
e 162 199
e 162 198
e 162 197
e 162 195
e 162 193
e 162 191
e 162 190
e 162 174
e 162 172
e 162 166
e 162 164
e 164 166
e 172 180
e 172 179
e 172 178
e 172 177
e 172 176
e 172 175
e 172 174
e 172 184
e 172 183
e 172 182
e 172 181
e 174 179
e 174 178
e 174 177
e 174 176
e 174 175
e 176 178
e 176 177
e 190 201
e 190 200
e 190 199
e 190 198
e 190 197
e 190 195
e 190 193
e 190 191
e 191 203
e 191 202
e 191 201
e 191 200
e 191 199
e 191 198
e 191 197
e 191 195
e 191 193
e 193 200
e 193 199
e 193 198
e 193 197
e 193 195
e 195 207
e 195 206
e 195 203
e 195 202
e 195 201
e 195 200
e 195 199
e 195 198
e 195 197
e 198 199
e 200 202
e 200 201
e 201 206
e 201 203
e 201 202
e 207 208
